id: 1083
name: ivu52
group: miplib2010
method: 2

Gurobi 7.0.2 (linux64, Matlab) logging started Tue Mar 27 05:42:18 2018


Gurobi 7.0.2 (linux64) logging started Tue Mar 27 05:42:18 2018

Optimize a model with 2116 rows, 157591 columns and 2179476 nonzeros
Coefficient statistics:
  Matrix range     [3e-03, 9e+00]
  Objective range  [2e+00, 8e+00]
  Bounds range     [1e+00, 1e+00]
  RHS range        [1e+00, 2e+01]
Presolve removed 0 rows and 48 columns
Presolve time: 0.34s
Presolved: 2116 rows, 157543 columns, 2178871 nonzeros

Ordering time: 0.01s

Barrier statistics:
 AA' NZ     : 4.739e+05
 Factor NZ  : 1.669e+06 (roughly 80 MBytes of memory)
 Factor Ops : 1.729e+09 (less than 1 second per iteration)
 Threads    : 4

                  Objective                Residual
Iter       Primal          Dual         Primal    Dual     Compl     Time
   0   3.96277222e+04  0.00000000e+00  8.49e+03 0.00e+00  1.26e-01     1s
   1   3.23228247e+03  5.55936468e+01  5.89e+02 3.68e-01  9.97e-03     1s
   2   1.22743325e+03  2.13682607e+02  1.58e+02 8.94e-02  3.14e-03     1s
   3   9.01675785e+02  2.95608749e+02  8.57e+01 1.60e-01  1.89e-03     1s
   4   5.57793790e+02  3.95755425e+02  7.70e+00 6.11e-02  5.06e-04     1s
   5   5.22240010e+02  4.46421190e+02  1.49e+00 3.09e-02  2.34e-04     1s
   6   5.06797716e+02  4.64267097e+02  3.47e-01 2.00e-02  1.34e-04     1s
   7   5.00284416e+02  4.70469257e+02  1.87e-01 1.47e-02  9.41e-05     1s
   8   4.96160698e+02  4.72335101e+02  1.24e-01 1.17e-02  7.54e-05     1s
   9   4.93403946e+02  4.74707589e+02  8.90e-02 9.20e-03  5.92e-05     2s
  10   4.88270440e+02  4.77280006e+02  4.74e-02 5.97e-03  3.49e-05     2s
  11   4.83408036e+02  4.78293961e+02  1.11e-02 3.75e-03  1.64e-05     2s
  12   4.81855630e+02  4.79233788e+02  3.55e-03 1.93e-03  8.42e-06     2s
  13   4.81128548e+02  4.79570314e+02  1.19e-03 1.39e-03  5.03e-06     2s
  14   4.80710656e+02  4.79919137e+02  3.98e-04 6.82e-04  2.55e-06     2s
  15   4.80434785e+02  4.80047433e+02  1.39e-04 4.28e-04  1.26e-06     2s
  16   4.80305091e+02  4.80140175e+02  3.00e-05 2.37e-04  5.41e-07     2s
  17   4.80277085e+02  4.80186740e+02  1.23e-05 1.38e-04  2.97e-07     2s
  18   4.80262580e+02  4.80217139e+02  5.20e-06 7.22e-05  1.50e-07     2s
  19   4.80256902e+02  4.80234908e+02  2.38e-06 3.42e-05  7.25e-08     2s
  20   4.80252156e+02  4.80245900e+02  4.81e-07 9.97e-06  2.06e-08     3s
  21   4.80251075e+02  4.80249323e+02  1.73e-07 2.38e-06  5.74e-09     3s
  22   4.80250541e+02  4.80250140e+02  2.60e-08 6.39e-07  1.32e-09     3s
  23   4.80250510e+02  4.80250225e+02  5.55e-08 4.57e-07  9.41e-10     3s
  24   4.80250504e+02  4.80250298e+02  6.79e-08 3.04e-07  6.79e-10     3s
  25   4.80250492e+02  4.80250391e+02  5.15e-08 1.04e-07  3.26e-10     3s
  26   4.80250475e+02  4.80250428e+02  3.56e-08 2.37e-08  1.51e-10     3s
  27   4.80250447e+02  4.80250433e+02  7.87e-09 1.28e-08  4.54e-11     3s
  28   4.80250442e+02  4.80250436e+02  4.44e-09 5.81e-09  1.99e-11     3s
  29   4.80250439e+02  4.80250438e+02  7.59e-10 1.66e-09  4.12e-12     4s

Barrier solved model in 29 iterations and 3.53 seconds
Optimal objective 4.80250439e+02

Crossover log...

       0 DPushes remaining with DInf 6.9904651e-13                 4s

     427 PPushes remaining with PInf 0.0000000e+00                 4s
       0 PPushes remaining with PInf 0.0000000e+00                 4s

  Push phase complete: Pinf 0.0000000e+00, Dinf 1.7861147e-03      4s

Iteration    Objective       Primal Inf.    Dual Inf.      Time
    2066    4.8025044e+02   0.000000e+00   1.786115e-03      4s
    2072    4.8025044e+02   0.000000e+00   0.000000e+00      4s

Solved in 2072 iterations and 3.84 seconds
Optimal objective  4.802504384e+02
status: OPTIMAL
